
Gurobi 10.0.1 (win64) logging started Thu Apr 20 17:34:59 2023

Set parameter LogFile to value "results/log/Snt01.log"
Gurobi Optimizer version 10.0.1 build v10.0.1rc0 (win64)

CPU model: AMD Ryzen 7 3700X 8-Core Processor, instruction set [SSE2|AVX|AVX2]
Thread count: 8 physical cores, 16 logical processors, using up to 16 threads

Optimize a model with 1745 rows, 988 columns and 8121 nonzeros
Model fingerprint: 0xe3571ecb
Variable types: 126 continuous, 862 integer (862 binary)
Coefficient statistics:
  Matrix range     [1e+00, 7e+04]
  Objective range  [1e+00, 1e+00]
  Bounds range     [1e+00, 1e+00]
  RHS range        [1e+00, 2e+05]
Found heuristic solution: objective 446.0000000
Presolve removed 128 rows and 2 columns
Presolve time: 0.01s
Presolved: 1617 rows, 986 columns, 7722 nonzeros
Variable types: 125 continuous, 861 integer (861 binary)

Root relaxation: objective 8.700000e+01, 32 iterations, 0.00 seconds (0.00 work units)

    Nodes    |    Current Node    |     Objective Bounds      |     Work
 Expl Unexpl |  Obj  Depth IntInf | Incumbent    BestBd   Gap | It/Node Time

     0     0   87.00000    0   13  446.00000   87.00000  80.5%     -    0s
H    0     0                     232.0000000   87.00000  62.5%     -    0s
H    0     0                     226.0000000   87.00000  61.5%     -    0s
H    0     0                     214.0000000   87.00000  59.3%     -    0s
     0     0   87.00354    0   32  214.00000   87.00354  59.3%     -    0s
H    0     0                     189.0000000   87.00354  54.0%     -    0s
     0     0  103.00007    0   33  189.00000  103.00007  45.5%     -    0s
     0     0  119.25157    0   28  189.00000  119.25157  36.9%     -    0s
     0     0  119.25157    0   31  189.00000  119.25157  36.9%     -    0s
     0     0  126.92000    0   27  189.00000  126.92000  32.8%     -    0s
H    0     0                     188.0000000  126.92000  32.5%     -    0s
H    0     0                     185.0000000  129.00003  30.3%     -    0s
     0     0  129.00003    0   33  185.00000  129.00003  30.3%     -    0s
     0     0  129.04000    0   32  185.00000  129.04000  30.2%     -    0s
     0     0  129.04000    0   35  185.00000  129.04000  30.2%     -    0s
     0     0  129.08000    0   38  185.00000  129.08000  30.2%     -    0s
     0     0  129.09147    0   39  185.00000  129.09147  30.2%     -    0s
     0     0  129.09147    0   40  185.00000  129.09147  30.2%     -    0s
     0     0  130.44207    0   35  185.00000  130.44207  29.5%     -    0s
     0     0  130.44215    0   41  185.00000  130.44215  29.5%     -    0s
     0     0  130.57266    0   44  185.00000  130.57266  29.4%     -    0s
     0     0  130.57266    0   44  185.00000  130.57266  29.4%     -    0s
     0     0  130.86207    0   36  185.00000  130.86207  29.3%     -    0s
     0     0  131.12389    0   37  185.00000  131.12389  29.1%     -    0s
     0     0  131.12389    0   37  185.00000  131.12389  29.1%     -    0s
     0     0  131.36207    0   38  185.00000  131.36207  29.0%     -    0s
     0     0  131.37387    0   40  185.00000  131.37387  29.0%     -    0s
     0     0  131.37387    0   40  185.00000  131.37387  29.0%     -    0s
     0     0  131.37387    0   40  185.00000  131.37387  29.0%     -    0s
H    0     0                     180.0000000  131.39387  27.0%     -    0s
     0     0  131.39387    0   40  180.00000  131.39387  27.0%     -    0s
     0     0  131.39387    0   40  180.00000  131.39387  27.0%     -    0s
     0     0  131.47293    0   40  180.00000  131.47293  27.0%     -    0s
     0     0  131.47293    0   40  180.00000  131.47293  27.0%     -    0s
     0     0  131.47293    0   40  180.00000  131.47293  27.0%     -    0s
     0     0  131.47293    0   40  180.00000  131.47293  27.0%     -    0s
     0     0  131.47293    0   40  180.00000  131.47293  27.0%     -    0s
     0     0  131.47293    0   40  180.00000  131.47293  27.0%     -    0s
     0     2  131.47293    0   40  180.00000  131.47293  27.0%     -    0s
H   63    75                     179.0000000  136.85769  23.5%  14.3    0s
H   71    75                     177.0000000  136.85769  22.7%  13.5    0s
 19940  9725  164.20364   48   28  177.00000  156.55204  11.6%   6.2    5s
 41414 17362  176.22632   46   22  177.00000  160.84007  9.13%   7.2   10s
 66224 21537  172.69773   47   29  177.00000  164.79529  6.90%   8.4   15s
 87748 22231  171.02574   54   18  177.00000  167.81895  5.19%   9.2   20s
 107762 19637  175.65287   42   26  177.00000  170.51346  3.66%   9.9   25s
 128262 12934     cutoff   51       177.00000  173.13598  2.18%  10.4   30s

Cutting planes:
  Gomory: 31
  Lift-and-project: 62
  MIR: 77
  Flow cover: 656
  Inf proof: 1
  RLT: 17
  Relax-and-lift: 3

Explored 147687 nodes (1589555 simplex iterations) in 33.72 seconds (10.01 work units)
Thread count was 16 (of 16 available processors)

Solution count 10: 177 179 180 ... 446

Optimal solution found (tolerance 1.00e-04)
Best objective 1.770000000000e+02, best bound 1.770000000000e+02, gap 0.0000%
Warning: variable name "y[job:0, stage:0, machine:2]" has a space
Warning: constraint name "precedence between 1,0 to 0,0 if x_[j,l,h,z,i]=1" has a space
Warning: to let Gurobi read it back, use rlp format
Warning: variable name "y[job:0, stage:0, machine:2]" has a space
Warning: constraint name "precedence between 1,0 to 0,0 if x_[j,l,h,z,i]=1" has a space
Warning: default variable names used to write mps file
Warning: default constraint names used to write mps file
Warning: variable name "y[job:0, stage:0, machine:2]" has a space
Warning: default variable names used to write solution file
